20 20
14
3 3 10 0
3 4 0 0
3 5 3 15
3 6 0 4
3 7 3 0
3 8 3 7
3 9 17 11
3 10 0 10
3 11 13 0
3 17 6 3
4 3 6 0
4 9 13 11
4 11 16 0
4 17 9 3
% time elapsed: 0.55 s
% time elapsed: 0.55 s
%%%mzn-stat: initTime=0.000283
%%%mzn-stat: solveTime=0.468134
%%%mzn-stat: solutions=44
%%%mzn-stat: variables=29
%%%mzn-stat: propagators=19
%%%mzn-stat: propagations=574319
%%%mzn-stat: nodes=109848
%%%mzn-stat: failures=54053
%%%mzn-stat: restarts=121
%%%mzn-stat: peakDepth=44
%%%mzn-stat-end
